\ Model keypath
\ LP format - for model browsing. Use MPS format to capture full model detail.
Minimize
  99 t_1_2 + 150 t_1_3 + 150 t_1_4 + 150 t_1_5 + 150 t_1_6 + 150 t_1_7
   + 150 t_1_8 + 150 t_1_9 + 150 t_1_10 + 150 t_1_11 + 150 t_1_12
   + 150 t_1_13 + 150 t_1_14 + 150 t_1_15 + 155 t_2_1 + 170 t_2_3
   + 170 t_2_4 + 170 t_2_5 + 170 t_2_6 + 170 t_2_7 + 170 t_2_8 + 170 t_2_9
   + 170 t_2_10 + 170 t_2_11 + 170 t_2_12 + 170 t_2_13 + 170 t_2_14
   + 170 t_2_15 + 80 t_3_1 + 80 t_3_2 + 66 t_3_4 + 75 t_3_5 + 80 t_3_6
   + 80 t_3_7 + 80 t_3_8 + 80 t_3_9 + 80 t_3_10 + 80 t_3_11 + 80 t_3_12
   + 80 t_3_13 + 80 t_3_14 + 80 t_3_15 + 70 t_4_1 + 70 t_4_2 + 62 t_4_3
   + 60 t_4_5 + 70 t_4_6 + 70 t_4_7 + 70 t_4_8 + 70 t_4_9 + 70 t_4_10
   + 70 t_4_11 + 70 t_4_12 + 70 t_4_13 + 70 t_4_14 + 70 t_4_15 + 50 t_5_1
   + 50 t_5_2 + 50 t_5_3 + 50 t_5_4 + 50 t_5_6 + 50 t_5_7 + 50 t_5_8
   + 50 t_5_9 + 50 t_5_10 + 50 t_5_11 + 50 t_5_12 + 50 t_5_13 + 50 t_5_14
   + 50 t_5_15 + 120 t_6_1 + 120 t_6_2 + 120 t_6_3 + 120 t_6_4 + 120 t_6_5
   + 90 t_6_7 + 110 t_6_8 + 120 t_6_9 + 120 t_6_10 + 120 t_6_11
   + 120 t_6_12 + 120 t_6_13 + 120 t_6_14 + 120 t_6_15 + 100 t_7_1
   + 100 t_7_2 + 100 t_7_3 + 100 t_7_4 + 100 t_7_5 + 100 t_7_6 + 80 t_7_8
   + 100 t_7_9 + 100 t_7_10 + 100 t_7_11 + 100 t_7_12 + 100 t_7_13
   + 100 t_7_14 + 100 t_7_15 + 100 t_8_1 + 100 t_8_2 + 100 t_8_3
   + 100 t_8_4 + 100 t_8_5 + 100 t_8_6 + 100 t_8_7 + 100 t_8_9 + 100 t_8_10
   + 100 t_8_11 + 100 t_8_12 + 100 t_8_13 + 100 t_8_14 + 100 t_8_15
   + 140 t_9_1 + 140 t_9_2 + 140 t_9_3 + 140 t_9_4 + 140 t_9_5 + 140 t_9_6
   + 140 t_9_7 + 140 t_9_8 + 124 t_9_10 + 140 t_9_11 + 140 t_9_12
   + 140 t_9_13 + 140 t_9_14 + 140 t_9_15 + 80 t_10_1 + 80 t_10_2
   + 80 t_10_3 + 80 t_10_4 + 80 t_10_5 + 80 t_10_6 + 80 t_10_7 + 80 t_10_8
   + 66 t_10_9 + 80 t_10_11 + 80 t_10_12 + 80 t_10_13 + 80 t_10_14
   + 80 t_10_15 + 150 t_11_1 + 150 t_11_2 + 150 t_11_3 + 150 t_11_4
   + 150 t_11_5 + 150 t_11_6 + 150 t_11_7 + 150 t_11_8 + 150 t_11_9
   + 150 t_11_10 + 78 t_11_12 + 130 t_11_13 + 150 t_11_14 + 150 t_11_15
   + 180 t_12_1 + 180 t_12_2 + 180 t_12_3 + 180 t_12_4 + 180 t_12_5
   + 180 t_12_6 + 180 t_12_7 + 180 t_12_8 + 180 t_12_9 + 180 t_12_10
   + 165 t_12_11 + 150 t_12_13 + 180 t_12_14 + 180 t_12_15 + 100 t_13_1
   + 100 t_13_2 + 100 t_13_3 + 100 t_13_4 + 100 t_13_5 + 100 t_13_6
   + 100 t_13_7 + 100 t_13_8 + 100 t_13_9 + 100 t_13_10 + 100 t_13_11
   + 100 t_13_12 + 100 t_13_14 + 100 t_13_15 + 75 t_14_1 + 75 t_14_2
   + 75 t_14_3 + 75 t_14_4 + 75 t_14_5 + 75 t_14_6 + 75 t_14_7 + 75 t_14_8
   + 75 t_14_9 + 75 t_14_10 + 75 t_14_11 + 75 t_14_12 + 75 t_14_13
   + 59 t_14_15 + 80 t_15_1 + 80 t_15_2 + 80 t_15_3 + 80 t_15_4 + 80 t_15_5
   + 80 t_15_6 + 80 t_15_7 + 80 t_15_8 + 80 t_15_9 + 80 t_15_10
   + 80 t_15_11 + 80 t_15_12 + 80 t_15_13 + 72.5 t_15_14
Subject To
 cap_102: t_1_2 + t_1_3 + t_1_4 + t_1_5 + t_1_6 + t_1_7 + t_1_8 + t_1_9
   + t_1_10 + t_1_11 + t_1_12 + t_1_13 + t_1_14 + t_1_15 - 0.1 t_2_1
   - 0.3 t_6_7 + t_7_1 + t_7_2 + t_7_3 + t_7_4 + t_7_5 + t_7_6 + t_7_8
   + t_7_9 + t_7_10 + t_7_11 + t_7_12 + t_7_13 + t_7_14 + t_7_15 >= 62
 cap_301: - 0.2 t_9_10 + t_10_1 + t_10_2 + t_10_3 + t_10_4 + t_10_5
   + t_10_6 + t_10_7 + t_10_8 + t_10_9 + t_10_11 + t_10_12 + t_10_13
   + t_10_14 + t_10_15 + t_14_1 + t_14_2 + t_14_3 + t_14_4 + t_14_5
   + t_14_6 + t_14_7 + t_14_8 + t_14_9 + t_14_10 + t_14_11 + t_14_12
   + t_14_13 + t_14_15 - 0.1 t_15_14 >= 56
 cap_201: - 0.1 t_3_5 - 0.2 t_4_5 + t_5_1 + t_5_2 + t_5_3 + t_5_4 + t_5_6
   + t_5_7 + t_5_8 + t_5_9 + t_5_10 + t_5_11 + t_5_12 + t_5_13 + t_5_14
   + t_5_15 - 0.3 t_6_7 + t_7_1 + t_7_2 + t_7_3 + t_7_4 + t_7_5 + t_7_6
   + t_7_8 + t_7_9 + t_7_10 + t_7_11 + t_7_12 + t_7_13 + t_7_14 + t_7_15
   + t_11_1 + t_11_2 + t_11_3 + t_11_4 + t_11_5 + t_11_6 + t_11_7 + t_11_8
   + t_11_9 + t_11_10 + t_11_12 + t_11_13 + t_11_14 + t_11_15 - 0.1 t_12_11
   >= 36
 cap_104: - 0.3 t_1_2 + t_2_1 + t_2_3 + t_2_4 + t_2_5 + t_2_6 + t_2_7
   + t_2_8 + t_2_9 + t_2_10 + t_2_11 + t_2_12 + t_2_13 + t_2_14 + t_2_15
   - 0.1 t_6_8 - 0.2 t_7_8 + t_8_1 + t_8_2 + t_8_3 + t_8_4 + t_8_5 + t_8_6
   + t_8_7 + t_8_9 + t_8_10 + t_8_11 + t_8_12 + t_8_13 + t_8_14 + t_8_15
   >= 82
 cap_202: t_3_1 + t_3_2 + t_3_4 + t_3_5 + t_3_6 + t_3_7 + t_3_8 + t_3_9
   + t_3_10 + t_3_11 + t_3_12 + t_3_13 + t_3_14 + t_3_15 - 0.1 t_4_3
   - 0.2 t_9_10 + t_10_1 + t_10_2 + t_10_3 + t_10_4 + t_10_5 + t_10_6
   + t_10_7 + t_10_8 + t_10_9 + t_10_11 + t_10_12 + t_10_13 + t_10_14
   + t_10_15 - 0.2 t_11_13 - 0.3 t_12_13 + t_13_1 + t_13_2 + t_13_3
   + t_13_4 + t_13_5 + t_13_6 + t_13_7 + t_13_8 + t_13_9 + t_13_10
   + t_13_11 + t_13_12 + t_13_14 + t_13_15 >= 117
 cap_302: - 0.1 t_3_5 - 0.2 t_4_5 + t_5_1 + t_5_2 + t_5_3 + t_5_4 + t_5_6
   + t_5_7 + t_5_8 + t_5_9 + t_5_10 + t_5_11 + t_5_12 + t_5_13 + t_5_14
   + t_5_15 + t_9_1 + t_9_2 + t_9_3 + t_9_4 + t_9_5 + t_9_6 + t_9_7 + t_9_8
   + t_9_10 + t_9_11 + t_9_12 + t_9_13 + t_9_14 + t_9_15 - 0.1 t_10_9
   >= 82
 cap_303: - 0.2 t_14_15 + t_15_1 + t_15_2 + t_15_3 + t_15_4 + t_15_5
   + t_15_6 + t_15_7 + t_15_8 + t_15_9 + t_15_10 + t_15_11 + t_15_12
   + t_15_13 + t_15_14 >= -64
 cap_204: - 0.2 t_3_4 + t_4_1 + t_4_2 + t_4_3 + t_4_5 + t_4_6 + t_4_7
   + t_4_8 + t_4_9 + t_4_10 + t_4_11 + t_4_12 + t_4_13 + t_4_14 + t_4_15
   >= -8
 cap_203: - 0.1 t_6_8 - 0.2 t_7_8 + t_8_1 + t_8_2 + t_8_3 + t_8_4 + t_8_5
   + t_8_6 + t_8_7 + t_8_9 + t_8_10 + t_8_11 + t_8_12 + t_8_13 + t_8_14
   + t_8_15 - 0.4 t_11_12 + t_12_1 + t_12_2 + t_12_3 + t_12_4 + t_12_5
   + t_12_6 + t_12_7 + t_12_8 + t_12_9 + t_12_10 + t_12_11 + t_12_13
   + t_12_14 + t_12_15 >= 142
 cap_101: t_6_1 + t_6_2 + t_6_3 + t_6_4 + t_6_5 + t_6_7 + t_6_8 + t_6_9
   + t_6_10 + t_6_11 + t_6_12 + t_6_13 + t_6_14 + t_6_15 - 0.2 t_11_13
   - 0.3 t_12_13 + t_13_1 + t_13_2 + t_13_3 + t_13_4 + t_13_5 + t_13_6
   + t_13_7 + t_13_8 + t_13_9 + t_13_10 + t_13_11 + t_13_12 + t_13_14
   + t_13_15 >= 42
 demand_1: t_1_2 + t_1_3 + t_1_4 + t_1_5 + t_1_6 + t_1_7 + t_1_8 + t_1_9
   + t_1_10 + t_1_11 + t_1_12 + t_1_13 + t_1_14 + t_1_15 <= 90
 demand_2: t_2_1 + t_2_3 + t_2_4 + t_2_5 + t_2_6 + t_2_7 + t_2_8 + t_2_9
   + t_2_10 + t_2_11 + t_2_12 + t_2_13 + t_2_14 + t_2_15 <= 120
 demand_3: t_3_1 + t_3_2 + t_3_4 + t_3_5 + t_3_6 + t_3_7 + t_3_8 + t_3_9
   + t_3_10 + t_3_11 + t_3_12 + t_3_13 + t_3_14 + t_3_15 <= 70
 demand_4: t_4_1 + t_4_2 + t_4_3 + t_4_5 + t_4_6 + t_4_7 + t_4_8 + t_4_9
   + t_4_10 + t_4_11 + t_4_12 + t_4_13 + t_4_14 + t_4_15 <= 100
 demand_5: t_5_1 + t_5_2 + t_5_3 + t_5_4 + t_5_6 + t_5_7 + t_5_8 + t_5_9
   + t_5_10 + t_5_11 + t_5_12 + t_5_13 + t_5_14 + t_5_15 <= 50
 demand_6: t_6_1 + t_6_2 + t_6_3 + t_6_4 + t_6_5 + t_6_7 + t_6_8 + t_6_9
   + t_6_10 + t_6_11 + t_6_12 + t_6_13 + t_6_14 + t_6_15 <= 120
 demand_7: t_7_1 + t_7_2 + t_7_3 + t_7_4 + t_7_5 + t_7_6 + t_7_8 + t_7_9
   + t_7_10 + t_7_11 + t_7_12 + t_7_13 + t_7_14 + t_7_15 <= 80
 demand_8: t_8_1 + t_8_2 + t_8_3 + t_8_4 + t_8_5 + t_8_6 + t_8_7 + t_8_9
   + t_8_10 + t_8_11 + t_8_12 + t_8_13 + t_8_14 + t_8_15 <= 70
 demand_9: t_9_1 + t_9_2 + t_9_3 + t_9_4 + t_9_5 + t_9_6 + t_9_7 + t_9_8
   + t_9_10 + t_9_11 + t_9_12 + t_9_13 + t_9_14 + t_9_15 <= 140
 demand_10: t_10_1 + t_10_2 + t_10_3 + t_10_4 + t_10_5 + t_10_6 + t_10_7
   + t_10_8 + t_10_9 + t_10_11 + t_10_12 + t_10_13 + t_10_14 + t_10_15
   <= 125
 demand_11: t_11_1 + t_11_2 + t_11_3 + t_11_4 + t_11_5 + t_11_6 + t_11_7
   + t_11_8 + t_11_9 + t_11_10 + t_11_12 + t_11_13 + t_11_14 + t_11_15
   <= 50
 demand_12: t_12_1 + t_12_2 + t_12_3 + t_12_4 + t_12_5 + t_12_6 + t_12_7
   + t_12_8 + t_12_9 + t_12_10 + t_12_11 + t_12_13 + t_12_14 + t_12_15
   <= 180
 demand_13: t_13_1 + t_13_2 + t_13_3 + t_13_4 + t_13_5 + t_13_6 + t_13_7
   + t_13_8 + t_13_9 + t_13_10 + t_13_11 + t_13_12 + t_13_14 + t_13_15
   <= 30
 demand_14: t_14_1 + t_14_2 + t_14_3 + t_14_4 + t_14_5 + t_14_6 + t_14_7
   + t_14_8 + t_14_9 + t_14_10 + t_14_11 + t_14_12 + t_14_13 + t_14_15
   <= 75
 demand_15: t_15_1 + t_15_2 + t_15_3 + t_15_4 + t_15_5 + t_15_6 + t_15_7
   + t_15_8 + t_15_9 + t_15_10 + t_15_11 + t_15_12 + t_15_13 + t_15_14
   <= 80
Bounds
Generals
 t_1_2 t_1_3 t_1_4 t_1_5 t_1_6 t_1_7 t_1_8 t_1_9 t_1_10 t_1_11 t_1_12
 t_1_13 t_1_14 t_1_15 t_2_1 t_2_3 t_2_4 t_2_5 t_2_6 t_2_7 t_2_8 t_2_9
 t_2_10 t_2_11 t_2_12 t_2_13 t_2_14 t_2_15 t_3_1 t_3_2 t_3_4 t_3_5 t_3_6
 t_3_7 t_3_8 t_3_9 t_3_10 t_3_11 t_3_12 t_3_13 t_3_14 t_3_15 t_4_1 t_4_2
 t_4_3 t_4_5 t_4_6 t_4_7 t_4_8 t_4_9 t_4_10 t_4_11 t_4_12 t_4_13 t_4_14
 t_4_15 t_5_1 t_5_2 t_5_3 t_5_4 t_5_6 t_5_7 t_5_8 t_5_9 t_5_10 t_5_11
 t_5_12 t_5_13 t_5_14 t_5_15 t_6_1 t_6_2 t_6_3 t_6_4 t_6_5 t_6_7 t_6_8
 t_6_9 t_6_10 t_6_11 t_6_12 t_6_13 t_6_14 t_6_15 t_7_1 t_7_2 t_7_3 t_7_4
 t_7_5 t_7_6 t_7_8 t_7_9 t_7_10 t_7_11 t_7_12 t_7_13 t_7_14 t_7_15 t_8_1
 t_8_2 t_8_3 t_8_4 t_8_5 t_8_6 t_8_7 t_8_9 t_8_10 t_8_11 t_8_12 t_8_13
 t_8_14 t_8_15 t_9_1 t_9_2 t_9_3 t_9_4 t_9_5 t_9_6 t_9_7 t_9_8 t_9_10
 t_9_11 t_9_12 t_9_13 t_9_14 t_9_15 t_10_1 t_10_2 t_10_3 t_10_4 t_10_5
 t_10_6 t_10_7 t_10_8 t_10_9 t_10_11 t_10_12 t_10_13 t_10_14 t_10_15 t_11_1
 t_11_2 t_11_3 t_11_4 t_11_5 t_11_6 t_11_7 t_11_8 t_11_9 t_11_10 t_11_12
 t_11_13 t_11_14 t_11_15 t_12_1 t_12_2 t_12_3 t_12_4 t_12_5 t_12_6 t_12_7
 t_12_8 t_12_9 t_12_10 t_12_11 t_12_13 t_12_14 t_12_15 t_13_1 t_13_2 t_13_3
 t_13_4 t_13_5 t_13_6 t_13_7 t_13_8 t_13_9 t_13_10 t_13_11 t_13_12 t_13_14
 t_13_15 t_14_1 t_14_2 t_14_3 t_14_4 t_14_5 t_14_6 t_14_7 t_14_8 t_14_9
 t_14_10 t_14_11 t_14_12 t_14_13 t_14_15 t_15_1 t_15_2 t_15_3 t_15_4 t_15_5
 t_15_6 t_15_7 t_15_8 t_15_9 t_15_10 t_15_11 t_15_12 t_15_13 t_15_14
End
